60
2 0 1
2 1 1
4 1 1
4 2 1
5 1 1
5 2 1
5 4 1
6 0 1
6 1 1
6 2 1
6 3 1
6 4 1
6 5 1
7 0 1
7 1 1
7 2 1
7 4 1
7 5 1
8 2 1
8 5 1
8 6 1
9 0 1
9 2 1
9 8 1
10 2 1
10 8 1
11 0 1
11 1 1
11 5 1
11 7 1
11 8 1
11 9 1
11 10 1
12 5 1
12 8 1
12 10 1
12 11 1
13 1 1
13 2 1
13 3 1
13 4 1
13 11 1
13 12 1
14 0 1
14 3 1
14 4 1
14 5 1
14 8 1
14 9 1
14 10 1
14 11 1
14 12 1
15 2 1
15 4 1
15 11 1
15 12 1
15 13 1
16 2 1
16 5 1
16 7 1
16 8 1
16 11 1
17 1 1
17 2 1
17 3 1
17 4 1
17 5 1
17 6 1
17 7 1
17 14 1
17 15 1
18 1 1
18 2 1
18 4 1
18 7 1
18 9 1
18 14 1
19 0 1
19 4 1
19 5 1
19 7 1
19 10 1
19 15 1
19 16 1
19 17 1
20 0 1
20 1 1
20 5 1
20 9 1
20 10 1
20 11 1
20 16 1
20 17 1
20 19 1
21 1 1
21 2 1
21 4 1
21 9 1
21 12 1
21 14 1
21 18 1
22 0 1
22 2 1
22 4 1
22 5 1
22 8 1
22 11 1
22 13 1
22 14 1
22 16 1
22 17 1
22 18 1
22 19 1
22 20 1
23 0 1
23 1 1
23 3 1
23 5 1
23 6 1
23 7 1
23 8 1
23 9 1
23 10 1
23 13 1
23 18 1
23 20 1
23 21 1
23 22 1
24 0 1
24 2 1
24 4 1
24 7 1
24 8 1
24 9 1
24 11 1
24 12 1
24 18 1
24 19 1
24 23 1
25 1 1
25 2 1
25 8 1
25 9 1
25 10 1
25 14 1
25 15 1
25 16 1
25 20 1
25 21 1
25 23 1
26 3 1
26 4 1
26 6 1
26 7 1
26 8 1
26 11 1
26 12 1
26 18 1
26 19 1
26 20 1
26 21 1
26 23 1
26 24 1
26 25 1
27 0 1
27 2 1
27 3 1
27 4 1
27 8 1
27 9 1
27 10 1
27 12 1
27 14 1
27 15 1
27 20 1
27 22 1
27 23 1
27 24 1
27 25 1
28 1 1
28 2 1
28 3 1
28 4 1
28 5 1
28 9 1
28 11 1
28 16 1
28 18 1
28 20 1
28 22 1
28 24 1
28 27 1
29 2 1
29 3 1
29 8 1
29 10 1
29 12 1
29 14 1
29 15 1
29 16 1
29 17 1
29 19 1
29 20 1
29 21 1
29 22 1
29 23 1
29 24 1
29 26 1
29 27 1
29 28 1
30 1 1
30 3 1
30 4 1
30 6 1
30 9 1
30 12 1
30 13 1
30 14 1
30 15 1
30 19 1
30 22 1
30 25 1
30 29 1
31 3 1
31 5 1
31 10 1
31 11 1
31 14 1
31 15 1
31 17 1
31 18 1
31 19 1
31 20 1
31 21 1
31 23 1
31 25 1
31 26 1
31 27 1
31 28 1
31 29 1
31 30 1
32 0 1
32 1 1
32 2 1
32 4 1
32 7 1
32 8 1
32 11 1
32 12 1
32 16 1
32 17 1
32 18 1
32 19 1
32 22 1
32 23 1
32 24 1
32 25 1
32 26 1
32 30 1
32 31 1
33 0 1
33 3 1
33 4 1
33 6 1
33 8 1
33 10 1
33 11 1
33 13 1
33 14 1
33 16 1
33 17 1
33 26 1
33 30 1
33 32 1
34 1 1
34 2 1
34 4 1
34 5 1
34 6 1
34 8 1
34 11 1
34 13 1
34 14 1
34 16 1
34 17 1
34 24 1
34 26 1
34 27 1
34 29 1
34 31 1
35 0 1
35 1 1
35 2 1
35 4 1
35 6 1
35 8 1
35 9 1
35 14 1
35 15 1
35 16 1
35 17 1
35 18 1
35 19 1
35 20 1
35 22 1
35 23 1
35 25 1
35 27 1
35 29 1
35 30 1
35 31 1
35 32 1
35 33 1
36 2 1
36 3 1
36 9 1
36 11 1
36 12 1
36 18 1
36 21 1
36 23 1
36 25 1
36 28 1
36 32 1
36 33 1
37 1 1
37 5 1
37 6 1
37 8 1
37 11 1
37 15 1
37 17 1
37 20 1
37 21 1
37 22 1
37 27 1
37 29 1
37 30 1
37 31 1
37 32 1
37 35 1
38 3 1
38 5 1
38 9 1
38 10 1
38 11 1
38 12 1
38 13 1
38 14 1
38 15 1
38 18 1
38 21 1
38 22 1
38 24 1
38 29 1
38 30 1
38 32 1
38 34 1
38 37 1
39 1 1
39 4 1
39 5 1
39 6 1
39 7 1
39 8 1
39 9 1
39 11 1
39 12 1
39 13 1
39 17 1
39 18 1
39 21 1
39 22 1
39 25 1
39 26 1
39 27 1
39 28 1
39 33 1
39 34 1
40 0 1
40 1 1
40 2 1
40 4 1
40 5 1
40 8 1
40 9 1
40 10 1
40 12 1
40 14 1
40 16 1
40 17 1
40 18 1
40 19 1
40 20 1
40 23 1
40 24 1
40 25 1
40 27 1
40 28 1
40 30 1
40 32 1
40 33 1
40 37 1
41 0 1
41 4 1
41 6 1
41 7 1
41 8 1
41 9 1
41 11 1
41 12 1
41 13 1
41 15 1
41 16 1
41 24 1
41 25 1
41 26 1
41 30 1
41 33 1
41 37 1
41 39 1
41 40 1
42 1 1
42 2 1
42 3 1
42 4 1
42 5 1
42 11 1
42 13 1
42 18 1
42 20 1
42 21 1
42 22 1
42 24 1
42 27 1
42 28 1
42 29 1
42 32 1
42 36 1
42 38 1
42 39 1
42 41 1
43 3 1
43 5 1
43 7 1
43 9 1
43 10 1
43 11 1
43 12 1
43 14 1
43 18 1
43 21 1
43 23 1
43 25 1
43 26 1
43 29 1
43 30 1
43 31 1
43 32 1
43 33 1
43 35 1
43 36 1
43 37 1
43 38 1
43 40 1
43 41 1
43 42 1
44 1 1
44 3 1
44 5 1
44 6 1
44 7 1
44 8 1
44 10 1
44 13 1
44 14 1
44 17 1
44 19 1
44 20 1
44 21 1
44 25 1
44 27 1
44 32 1
44 33 1
44 36 1
44 37 1
44 41 1
44 43 1
45 3 1
45 4 1
45 7 1
45 10 1
45 11 1
45 12 1
45 13 1
45 14 1
45 17 1
45 23 1
45 25 1
45 26 1
45 27 1
45 31 1
45 33 1
45 35 1
45 36 1
45 37 1
45 39 1
45 41 1
45 42 1
45 43 1
46 1 1
46 2 1
46 4 1
46 6 1
46 8 1
46 9 1
46 10 1
46 11 1
46 13 1
46 14 1
46 16 1
46 18 1
46 19 1
46 20 1
46 21 1
46 23 1
46 25 1
46 26 1
46 27 1
46 30 1
46 32 1
46 34 1
46 35 1
46 36 1
46 37 1
46 39 1
46 40 1
46 41 1
46 44 1
46 45 1
47 0 1
47 2 1
47 3 1
47 4 1
47 5 1
47 9 1
47 11 1
47 15 1
47 16 1
47 17 1
47 19 1
47 21 1
47 22 1
47 24 1
47 26 1
47 27 1
47 28 1
47 31 1
47 32 1
47 34 1
47 36 1
47 37 1
47 38 1
47 39 1
47 40 1
47 42 1
47 45 1
47 46 1
48 3 1
48 10 1
48 13 1
48 17 1
48 20 1
48 21 1
48 25 1
48 26 1
48 27 1
48 31 1
48 32 1
48 34 1
48 46 1
48 47 1
49 1 1
49 2 1
49 4 1
49 9 1
49 11 1
49 13 1
49 14 1
49 16 1
49 17 1
49 19 1
49 26 1
49 27 1
49 30 1
49 31 1
49 34 1
49 35 1
49 36 1
49 37 1
49 38 1
49 39 1
49 41 1
49 42 1
49 43 1
49 44 1
49 47 1
49 48 1
50 0 1
50 1 1
50 2 1
50 8 1
50 9 1
50 10 1
50 11 1
50 13 1
50 14 1
50 15 1
50 16 1
50 18 1
50 23 1
50 25 1
50 26 1
50 28 1
50 30 1
50 31 1
50 33 1
50 34 1
50 36 1
50 37 1
50 39 1
50 41 1
50 44 1
50 45 1
50 46 1
50 47 1
50 48 1
50 49 1
51 0 1
51 2 1
51 3 1
51 7 1
51 8 1
51 11 1
51 12 1
51 13 1
51 16 1
51 17 1
51 20 1
51 21 1
51 22 1
51 24 1
51 26 1
51 28 1
51 29 1
51 33 1
51 34 1
51 35 1
51 36 1
51 39 1
51 40 1
51 45 1
51 46 1
51 48 1
51 50 1
52 0 1
52 3 1
52 5 1
52 6 1
52 7 1
52 8 1
52 14 1
52 17 1
52 19 1
52 21 1
52 24 1
52 28 1
52 29 1
52 30 1
52 31 1
52 34 1
52 35 1
52 37 1
52 39 1
52 42 1
52 43 1
52 45 1
52 49 1
52 51 1
53 0 1
53 2 1
53 3 1
53 4 1
53 5 1
53 7 1
53 8 1
53 9 1
53 10 1
53 11 1
53 13 1
53 14 1
53 16 1
53 17 1
53 18 1
53 20 1
53 21 1
53 23 1
53 25 1
53 26 1
53 28 1
53 31 1
53 33 1
53 35 1
53 38 1
53 41 1
53 42 1
53 43 1
53 45 1
53 46 1
53 50 1
53 51 1
54 0 1
54 1 1
54 2 1
54 3 1
54 4 1
54 6 1
54 8 1
54 10 1
54 11 1
54 12 1
54 13 1
54 14 1
54 15 1
54 19 1
54 20 1
54 21 1
54 22 1
54 23 1
54 24 1
54 25 1
54 26 1
54 27 1
54 30 1
54 31 1
54 32 1
54 33 1
54 35 1
54 37 1
54 41 1
54 45 1
54 46 1
54 51 1
54 52 1
55 1 1
55 2 1
55 3 1
55 8 1
55 9 1
55 10 1
55 12 1
55 19 1
55 21 1
55 25 1
55 26 1
55 29 1
55 30 1
55 31 1
55 34 1
55 35 1
55 37 1
55 38 1
55 39 1
55 42 1
55 43 1
55 45 1
55 46 1
55 47 1
55 52 1
55 53 1
56 0 1
56 2 1
56 3 1
56 5 1
56 7 1
56 9 1
56 10 1
56 13 1
56 14 1
56 17 1
56 22 1
56 23 1
56 24 1
56 28 1
56 29 1
56 32 1
56 35 1
56 38 1
56 39 1
56 40 1
56 42 1
56 43 1
56 46 1
56 47 1
56 49 1
56 50 1
56 52 1
56 54 1
57 0 1
57 4 1
57 5 1
57 8 1
57 10 1
57 12 1
57 15 1
57 22 1
57 23 1
57 26 1
57 28 1
57 30 1
57 36 1
57 41 1
57 43 1
57 47 1
57 49 1
57 50 1
57 51 1
57 53 1
57 54 1
57 55 1
58 0 1
58 5 1
58 6 1
58 9 1
58 14 1
58 15 1
58 16 1
58 17 1
58 18 1
58 19 1
58 20 1
58 23 1
58 26 1
58 32 1
58 33 1
58 34 1
58 35 1
58 36 1
58 38 1
58 39 1
58 41 1
58 47 1
58 48 1
58 49 1
58 52 1
59 0 1
59 1 1
59 2 1
59 5 1
59 6 1
59 7 1
59 12 1
59 15 1
59 20 1
59 22 1
59 25 1
59 26 1
59 27 1
59 29 1
59 31 1
59 32 1
59 33 1
59 34 1
59 35 1
59 37 1
59 38 1
59 39 1
59 42 1
59 43 1
59 44 1
59 45 1
59 46 1
59 48 1
59 49 1
59 50 1
59 51 1
59 58 1
